(set-info :smt-lib-version 2.6)
(set-logic QF_NIA)
(set-info :source |
Generated by: Cristina Borralleras, Daniel Larraz, Albert Oliveras, Enric Rodriguez-Carbonell, Albert Rubio
Generated on: 2017-04-27
Generator: VeryMax
Application: Termination proving
Target solver: barcelogic
|)
(set-info :license "https://creativecommons.org/licenses/by/4.0/")
(set-info :category "industrial")
(set-info :status sat)
(declare-fun Nl2arg11 () Int)
(declare-fun Nl2arg21 () Int)
(declare-fun Nl2arg31 () Int)
(declare-fun Nl2arg12 () Int)
(declare-fun Nl2arg22 () Int)
(declare-fun Nl2arg32 () Int)
(declare-fun Nl2arg13 () Int)
(declare-fun Nl2arg23 () Int)
(declare-fun Nl2arg33 () Int)
(declare-fun lam0n0 () Int)
(declare-fun lam0n1 () Int)
(declare-fun lam0n2 () Int)
(declare-fun lam0n4 () Int)
(declare-fun lam0n5 () Int)
(declare-fun lam0n6 () Int)
(declare-fun Nl2CT1 () Int)
(declare-fun Nl2CT2 () Int)
(declare-fun Nl2CT3 () Int)
(declare-fun lam0n3 () Int)
(declare-fun lam1n0 () Int)
(declare-fun lam1n1 () Int)
(declare-fun lam1n2 () Int)
(declare-fun lam1n4 () Int)
(declare-fun lam1n5 () Int)
(declare-fun lam1n6 () Int)
(declare-fun lam1n3 () Int)
(declare-fun lam2n0 () Int)
(declare-fun lam2n1 () Int)
(declare-fun lam2n2 () Int)
(declare-fun lam2n4 () Int)
(declare-fun lam2n5 () Int)
(declare-fun lam2n6 () Int)
(declare-fun lam2n3 () Int)
(declare-fun lam3n0 () Int)
(declare-fun lam3n1 () Int)
(declare-fun lam3n2 () Int)
(declare-fun lam3n4 () Int)
(declare-fun lam3n5 () Int)
(declare-fun lam3n6 () Int)
(declare-fun lam3n3 () Int)
(declare-fun lam4n0 () Int)
(declare-fun lam4n1 () Int)
(declare-fun lam4n2 () Int)
(declare-fun lam4n4 () Int)
(declare-fun lam4n5 () Int)
(declare-fun lam4n6 () Int)
(declare-fun lam4n3 () Int)
(declare-fun lam5n0 () Int)
(declare-fun lam5n1 () Int)
(declare-fun lam5n2 () Int)
(declare-fun lam5n4 () Int)
(declare-fun lam5n5 () Int)
(declare-fun lam5n6 () Int)
(declare-fun lam5n3 () Int)
(declare-fun lam6n0 () Int)
(declare-fun lam6n1 () Int)
(declare-fun lam6n2 () Int)
(declare-fun lam6n4 () Int)
(declare-fun lam6n5 () Int)
(declare-fun lam6n6 () Int)
(declare-fun lam6n3 () Int)
(declare-fun lam7n0 () Int)
(declare-fun lam7n1 () Int)
(declare-fun lam7n2 () Int)
(declare-fun lam7n4 () Int)
(declare-fun lam7n5 () Int)
(declare-fun lam7n6 () Int)
(declare-fun lam7n3 () Int)
(declare-fun lam8n0 () Int)
(declare-fun lam8n1 () Int)
(declare-fun lam8n3 () Int)
(declare-fun lam8n4 () Int)
(declare-fun lam8n5 () Int)
(declare-fun lam8n2 () Int)
(declare-fun lam9n0 () Int)
(declare-fun lam9n1 () Int)
(declare-fun lam9n3 () Int)
(declare-fun lam9n4 () Int)
(declare-fun lam9n5 () Int)
(declare-fun lam9n2 () Int)
(declare-fun lam10n0 () Int)
(declare-fun lam10n1 () Int)
(declare-fun lam10n3 () Int)
(declare-fun lam10n4 () Int)
(declare-fun lam10n5 () Int)
(declare-fun lam10n2 () Int)
(declare-fun lam11n0 () Int)
(declare-fun lam11n1 () Int)
(declare-fun lam11n3 () Int)
(declare-fun lam11n4 () Int)
(declare-fun lam11n5 () Int)
(declare-fun lam11n2 () Int)
(declare-fun lam12n0 () Int)
(declare-fun lam12n1 () Int)
(declare-fun lam12n3 () Int)
(declare-fun lam12n4 () Int)
(declare-fun lam12n5 () Int)
(declare-fun lam12n2 () Int)
(declare-fun lam13n0 () Int)
(declare-fun lam13n1 () Int)
(declare-fun lam13n3 () Int)
(declare-fun lam13n4 () Int)
(declare-fun lam13n5 () Int)
(declare-fun lam13n2 () Int)
(declare-fun lam14n0 () Int)
(declare-fun lam14n1 () Int)
(declare-fun lam14n3 () Int)
(declare-fun lam14n4 () Int)
(declare-fun lam14n5 () Int)
(declare-fun lam14n2 () Int)
(declare-fun lam15n0 () Int)
(declare-fun lam15n1 () Int)
(declare-fun lam15n3 () Int)
(declare-fun lam15n4 () Int)
(declare-fun lam15n5 () Int)
(declare-fun lam15n2 () Int)
(declare-fun lam16n0 () Int)
(declare-fun lam16n2 () Int)
(declare-fun lam16n3 () Int)
(declare-fun lam16n4 () Int)
(declare-fun lam16n1 () Int)
(declare-fun lam17n0 () Int)
(declare-fun lam17n2 () Int)
(declare-fun lam17n3 () Int)
(declare-fun lam17n4 () Int)
(declare-fun lam17n1 () Int)
(declare-fun lam18n0 () Int)
(declare-fun lam18n2 () Int)
(declare-fun lam18n3 () Int)
(declare-fun lam18n4 () Int)
(declare-fun lam18n1 () Int)
(declare-fun lam19n0 () Int)
(declare-fun lam19n2 () Int)
(declare-fun lam19n3 () Int)
(declare-fun lam19n4 () Int)
(declare-fun lam19n1 () Int)
(declare-fun lam20n0 () Int)
(declare-fun lam20n2 () Int)
(declare-fun lam20n3 () Int)
(declare-fun lam20n4 () Int)
(declare-fun lam20n1 () Int)
(declare-fun lam21n0 () Int)
(declare-fun lam21n2 () Int)
(declare-fun lam21n3 () Int)
(declare-fun lam21n4 () Int)
(declare-fun lam21n1 () Int)
(declare-fun lam22n0 () Int)
(declare-fun lam22n2 () Int)
(declare-fun lam22n3 () Int)
(declare-fun lam22n4 () Int)
(declare-fun lam22n1 () Int)
(declare-fun lam23n0 () Int)
(declare-fun lam23n2 () Int)
(declare-fun lam23n3 () Int)
(declare-fun lam23n4 () Int)
(declare-fun lam23n1 () Int)
(declare-fun lam24n0 () Int)
(declare-fun lam24n1 () Int)
(declare-fun lam24n2 () Int)
(declare-fun lam24n3 () Int)
(declare-fun lam24n4 () Int)
(declare-fun lam25n0 () Int)
(declare-fun lam25n1 () Int)
(declare-fun lam25n2 () Int)
(declare-fun lam25n3 () Int)
(declare-fun lam25n4 () Int)
(declare-fun lam26n0 () Int)
(declare-fun lam26n1 () Int)
(declare-fun lam26n2 () Int)
(declare-fun lam26n3 () Int)
(declare-fun lam26n4 () Int)
(declare-fun undef23 () Int)
(declare-fun undef22 () Int)
(declare-fun arg1 () Int)
(declare-fun arg2 () Int)
(declare-fun arg3 () Int)
(declare-fun FV_arg1_6 () Int)
(declare-fun FV_arg2_6 () Int)
(declare-fun FV_arg3_6 () Int)
(declare-fun lam27n0 () Int)
(declare-fun lam27n1 () Int)
(declare-fun lam27n2 () Int)
(declare-fun lam27n3 () Int)
(declare-fun lam27n4 () Int)
(declare-fun lam27n5 () Int)
(declare-fun lam28n0 () Int)
(declare-fun lam28n1 () Int)
(declare-fun lam28n2 () Int)
(declare-fun lam28n3 () Int)
(declare-fun lam28n4 () Int)
(declare-fun lam28n5 () Int)
(declare-fun lam29n0 () Int)
(declare-fun lam29n1 () Int)
(declare-fun lam29n2 () Int)
(declare-fun lam29n3 () Int)
(declare-fun lam29n4 () Int)
(declare-fun lam29n5 () Int)
(declare-fun lam29n6 () Int)
(declare-fun lam30n0 () Int)
(declare-fun lam30n1 () Int)
(declare-fun lam30n2 () Int)
(declare-fun lam30n3 () Int)
(declare-fun lam30n4 () Int)
(declare-fun lam30n5 () Int)
(declare-fun lam30n6 () Int)
(declare-fun lam31n0 () Int)
(declare-fun lam31n1 () Int)
(declare-fun lam31n2 () Int)
(declare-fun lam31n3 () Int)
(declare-fun lam31n4 () Int)
(declare-fun lam31n5 () Int)
(declare-fun lam32n0 () Int)
(declare-fun lam32n1 () Int)
(declare-fun lam32n2 () Int)
(declare-fun lam32n3 () Int)
(declare-fun lam32n4 () Int)
(declare-fun lam32n5 () Int)
(declare-fun lam33n0 () Int)
(declare-fun lam33n1 () Int)
(declare-fun lam33n2 () Int)
(declare-fun lam33n3 () Int)
(declare-fun lam33n4 () Int)
(declare-fun lam33n5 () Int)
(declare-fun lam34n0 () Int)
(declare-fun lam34n1 () Int)
(declare-fun lam34n2 () Int)
(declare-fun lam34n3 () Int)
(declare-fun lam34n4 () Int)
(declare-fun lam34n5 () Int)
(declare-fun lam35n0 () Int)
(declare-fun lam35n1 () Int)
(declare-fun lam35n2 () Int)
(declare-fun lam35n3 () Int)
(declare-fun lam35n4 () Int)
(declare-fun lam35n5 () Int)
(declare-fun lam35n6 () Int)
(declare-fun lam36n0 () Int)
(declare-fun lam36n1 () Int)
(declare-fun lam36n2 () Int)
(declare-fun lam36n3 () Int)
(declare-fun lam36n4 () Int)
(declare-fun lam36n5 () Int)
(declare-fun lam36n6 () Int)
(declare-fun lam37n0 () Int)
(declare-fun lam37n1 () Int)
(declare-fun lam37n2 () Int)
(declare-fun lam37n3 () Int)
(declare-fun lam37n4 () Int)
(declare-fun lam37n5 () Int)
(declare-fun lam38n0 () Int)
(declare-fun lam38n1 () Int)
(declare-fun lam38n2 () Int)
(declare-fun lam38n3 () Int)
(declare-fun lam38n4 () Int)
(declare-fun lam38n5 () Int)
(declare-fun FV_arg1_7 () Int)
(declare-fun FV_arg3_7 () Int)
(declare-fun FV_arg2_7 () Int)
(assert ( and ( <= ( - 9 ) Nl2arg11 ) ( <= Nl2arg11 9 ) ( <= ( - 9 ) Nl2arg21 ) ( <= Nl2arg21 9 ) ( <= ( - 9 ) Nl2arg31 ) ( <= Nl2arg31 9 ) ( <= ( - 9 ) Nl2arg12 ) ( <= Nl2arg12 9 ) ( <= ( - 9 ) Nl2arg22 ) ( <= Nl2arg22 9 ) ( <= ( - 9 ) Nl2arg32 ) ( <= Nl2arg32 9 ) ( <= ( - 9 ) Nl2arg13 ) ( <= Nl2arg13 9 ) ( <= ( - 9 ) Nl2arg23 ) ( <= Nl2arg23 9 ) ( <= ( - 9 ) Nl2arg33 ) ( <= Nl2arg33 9 ) ))
(assert ( or ( and ( >= lam0n0 0 ) ( >= lam0n1 0 ) ( >= lam0n2 0 ) ( >= lam0n4 0 ) ( >= lam0n5 0 ) ( >= lam0n6 0 ) ( > ( + ( * ( - 1 ) lam0n0 ) ( * 2 lam0n1 ) ( * ( - 9 ) lam0n2 ) ( * Nl2CT1 lam0n4 ) ( * Nl2CT2 lam0n5 ) ( * Nl2CT3 lam0n6 ) ( - 1 ) ) 0 ) ( = ( + ( * 1 lam0n0 ) ( * Nl2arg11 lam0n4 ) ( * Nl2arg12 lam0n5 ) ( * Nl2arg13 lam0n6 ) ) 0 ) ( = ( + ( * 1 lam0n3 ) ( * Nl2arg21 lam0n4 ) ( * Nl2arg22 lam0n5 ) ( * Nl2arg23 lam0n6 ) ) 0 ) ( = ( + ( * ( - 1 ) lam0n1 ) ( * 1 lam0n2 ) ( * Nl2arg31 lam0n4 ) ( * Nl2arg32 lam0n5 ) ( * Nl2arg33 lam0n6 ) ) 0 ) ) ( and ( >= lam1n0 0 ) ( >= lam1n1 0 ) ( >= lam1n2 0 ) ( >= lam1n4 0 ) ( >= lam1n5 0 ) ( >= lam1n6 0 ) ( > ( + ( * ( - 1 ) lam1n0 ) ( * 2 lam1n1 ) ( * ( - 9 ) lam1n2 ) ( * Nl2CT1 lam1n4 ) ( * Nl2CT2 lam1n5 ) ( * Nl2CT3 lam1n6 ) ( - 1 ( + ( + ( + Nl2CT1 ( * Nl2arg11 0 ) ) ( * Nl2arg21 0 ) ) ( * Nl2arg31 ( - 1 ) ) ) ) ) 0 ) ( = ( + ( * 1 lam1n0 ) ( * Nl2arg11 lam1n4 ) ( * Nl2arg12 lam1n5 ) ( * Nl2arg13 lam1n6 ) ) 0 ) ( = ( + ( * 1 lam1n3 ) ( * Nl2arg21 lam1n4 ) ( * Nl2arg22 lam1n5 ) ( * Nl2arg23 lam1n6 ) ) 0 ) ( = ( + ( * ( - 1 ) lam1n1 ) ( * 1 lam1n2 ) ( * Nl2arg31 lam1n4 ) ( * Nl2arg32 lam1n5 ) ( * Nl2arg33 lam1n6 ) ( - ( + 0 ( * Nl2arg31 1 ) ) ) ) 0 ) ) ))
(assert ( or ( and ( >= lam0n0 0 ) ( >= lam0n1 0 ) ( >= lam0n2 0 ) ( >= lam0n4 0 ) ( >= lam0n5 0 ) ( >= lam0n6 0 ) ( > ( + ( * ( - 1 ) lam0n0 ) ( * 2 lam0n1 ) ( * ( - 9 ) lam0n2 ) ( * Nl2CT1 lam0n4 ) ( * Nl2CT2 lam0n5 ) ( * Nl2CT3 lam0n6 ) ( - 1 ) ) 0 ) ( = ( + ( * 1 lam0n0 ) ( * Nl2arg11 lam0n4 ) ( * Nl2arg12 lam0n5 ) ( * Nl2arg13 lam0n6 ) ) 0 ) ( = ( + ( * 1 lam0n3 ) ( * Nl2arg21 lam0n4 ) ( * Nl2arg22 lam0n5 ) ( * Nl2arg23 lam0n6 ) ) 0 ) ( = ( + ( * ( - 1 ) lam0n1 ) ( * 1 lam0n2 ) ( * Nl2arg31 lam0n4 ) ( * Nl2arg32 lam0n5 ) ( * Nl2arg33 lam0n6 ) ) 0 ) ) ( and ( >= lam2n0 0 ) ( >= lam2n1 0 ) ( >= lam2n2 0 ) ( >= lam2n4 0 ) ( >= lam2n5 0 ) ( >= lam2n6 0 ) ( > ( + ( * ( - 1 ) lam2n0 ) ( * 2 lam2n1 ) ( * ( - 9 ) lam2n2 ) ( * Nl2CT1 lam2n4 ) ( * Nl2CT2 lam2n5 ) ( * Nl2CT3 lam2n6 ) ( - 1 ( + ( + ( + Nl2CT2 ( * Nl2arg12 0 ) ) ( * Nl2arg22 0 ) ) ( * Nl2arg32 ( - 1 ) ) ) ) ) 0 ) ( = ( + ( * 1 lam2n0 ) ( * Nl2arg11 lam2n4 ) ( * Nl2arg12 lam2n5 ) ( * Nl2arg13 lam2n6 ) ) 0 ) ( = ( + ( * 1 lam2n3 ) ( * Nl2arg21 lam2n4 ) ( * Nl2arg22 lam2n5 ) ( * Nl2arg23 lam2n6 ) ) 0 ) ( = ( + ( * ( - 1 ) lam2n1 ) ( * 1 lam2n2 ) ( * Nl2arg31 lam2n4 ) ( * Nl2arg32 lam2n5 ) ( * Nl2arg33 lam2n6 ) ( - ( + 0 ( * Nl2arg32 1 ) ) ) ) 0 ) ) ))
(assert ( or ( and ( >= lam0n0 0 ) ( >= lam0n1 0 ) ( >= lam0n2 0 ) ( >= lam0n4 0 ) ( >= lam0n5 0 ) ( >= lam0n6 0 ) ( > ( + ( * ( - 1 ) lam0n0 ) ( * 2 lam0n1 ) ( * ( - 9 ) lam0n2 ) ( * Nl2CT1 lam0n4 ) ( * Nl2CT2 lam0n5 ) ( * Nl2CT3 lam0n6 ) ( - 1 ) ) 0 ) ( = ( + ( * 1 lam0n0 ) ( * Nl2arg11 lam0n4 ) ( * Nl2arg12 lam0n5 ) ( * Nl2arg13 lam0n6 ) ) 0 ) ( = ( + ( * 1 lam0n3 ) ( * Nl2arg21 lam0n4 ) ( * Nl2arg22 lam0n5 ) ( * Nl2arg23 lam0n6 ) ) 0 ) ( = ( + ( * ( - 1 ) lam0n1 ) ( * 1 lam0n2 ) ( * Nl2arg31 lam0n4 ) ( * Nl2arg32 lam0n5 ) ( * Nl2arg33 lam0n6 ) ) 0 ) ) ( and ( >= lam3n0 0 ) ( >= lam3n1 0 ) ( >= lam3n2 0 ) ( >= lam3n4 0 ) ( >= lam3n5 0 ) ( >= lam3n6 0 ) ( > ( + ( * ( - 1 ) lam3n0 ) ( * 2 lam3n1 ) ( * ( - 9 ) lam3n2 ) ( * Nl2CT1 lam3n4 ) ( * Nl2CT2 lam3n5 ) ( * Nl2CT3 lam3n6 ) ( - 1 ( + ( + ( + Nl2CT3 ( * Nl2arg13 0 ) ) ( * Nl2arg23 0 ) ) ( * Nl2arg33 ( - 1 ) ) ) ) ) 0 ) ( = ( + ( * 1 lam3n0 ) ( * Nl2arg11 lam3n4 ) ( * Nl2arg12 lam3n5 ) ( * Nl2arg13 lam3n6 ) ) 0 ) ( = ( + ( * 1 lam3n3 ) ( * Nl2arg21 lam3n4 ) ( * Nl2arg22 lam3n5 ) ( * Nl2arg23 lam3n6 ) ) 0 ) ( = ( + ( * ( - 1 ) lam3n1 ) ( * 1 lam3n2 ) ( * Nl2arg31 lam3n4 ) ( * Nl2arg32 lam3n5 ) ( * Nl2arg33 lam3n6 ) ( - ( + 0 ( * Nl2arg33 1 ) ) ) ) 0 ) ) ))
(assert ( or ( and ( >= lam4n0 0 ) ( >= lam4n1 0 ) ( >= lam4n2 0 ) ( >= lam4n4 0 ) ( >= lam4n5 0 ) ( >= lam4n6 0 ) ( > ( + ( * ( - 1 ) lam4n0 ) ( * 2 lam4n1 ) ( * ( - 9 ) lam4n2 ) ( * ( - 1 ) lam4n3 ) ( * Nl2CT1 lam4n4 ) ( * Nl2CT2 lam4n5 ) ( * Nl2CT3 lam4n6 ) ( - 1 ) ) 0 ) ( = ( + ( * 1 lam4n0 ) ( * Nl2arg11 lam4n4 ) ( * Nl2arg12 lam4n5 ) ( * Nl2arg13 lam4n6 ) ) 0 ) ( = ( + ( * 1 lam4n3 ) ( * Nl2arg21 lam4n4 ) ( * Nl2arg22 lam4n5 ) ( * Nl2arg23 lam4n6 ) ) 0 ) ( = ( + ( * ( - 1 ) lam4n1 ) ( * 1 lam4n2 ) ( * Nl2arg31 lam4n4 ) ( * Nl2arg32 lam4n5 ) ( * Nl2arg33 lam4n6 ) ) 0 ) ) ( and ( >= lam5n0 0 ) ( >= lam5n1 0 ) ( >= lam5n2 0 ) ( >= lam5n4 0 ) ( >= lam5n5 0 ) ( >= lam5n6 0 ) ( > ( + ( * ( - 1 ) lam5n0 ) ( * 2 lam5n1 ) ( * ( - 9 ) lam5n2 ) ( * ( - 1 ) lam5n3 ) ( * Nl2CT1 lam5n4 ) ( * Nl2CT2 lam5n5 ) ( * Nl2CT3 lam5n6 ) ( - 1 ( + ( + ( + Nl2CT1 ( * Nl2arg11 1 ) ) ( * Nl2arg21 1 ) ) ( * Nl2arg31 1 ) ) ) ) 0 ) ( = ( + ( * 1 lam5n0 ) ( * Nl2arg11 lam5n4 ) ( * Nl2arg12 lam5n5 ) ( * Nl2arg13 lam5n6 ) ) 0 ) ( = ( + ( * 1 lam5n3 ) ( * Nl2arg21 lam5n4 ) ( * Nl2arg22 lam5n5 ) ( * Nl2arg23 lam5n6 ) ) 0 ) ( = ( + ( * ( - 1 ) lam5n1 ) ( * 1 lam5n2 ) ( * Nl2arg31 lam5n4 ) ( * Nl2arg32 lam5n5 ) ( * Nl2arg33 lam5n6 ) ( - ( + 0 ( * Nl2arg31 1 ) ) ) ) 0 ) ) ))
(assert ( or ( and ( >= lam4n0 0 ) ( >= lam4n1 0 ) ( >= lam4n2 0 ) ( >= lam4n4 0 ) ( >= lam4n5 0 ) ( >= lam4n6 0 ) ( > ( + ( * ( - 1 ) lam4n0 ) ( * 2 lam4n1 ) ( * ( - 9 ) lam4n2 ) ( * ( - 1 ) lam4n3 ) ( * Nl2CT1 lam4n4 ) ( * Nl2CT2 lam4n5 ) ( * Nl2CT3 lam4n6 ) ( - 1 ) ) 0 ) ( = ( + ( * 1 lam4n0 ) ( * Nl2arg11 lam4n4 ) ( * Nl2arg12 lam4n5 ) ( * Nl2arg13 lam4n6 ) ) 0 ) ( = ( + ( * 1 lam4n3 ) ( * Nl2arg21 lam4n4 ) ( * Nl2arg22 lam4n5 ) ( * Nl2arg23 lam4n6 ) ) 0 ) ( = ( + ( * ( - 1 ) lam4n1 ) ( * 1 lam4n2 ) ( * Nl2arg31 lam4n4 ) ( * Nl2arg32 lam4n5 ) ( * Nl2arg33 lam4n6 ) ) 0 ) ) ( and ( >= lam6n0 0 ) ( >= lam6n1 0 ) ( >= lam6n2 0 ) ( >= lam6n4 0 ) ( >= lam6n5 0 ) ( >= lam6n6 0 ) ( > ( + ( * ( - 1 ) lam6n0 ) ( * 2 lam6n1 ) ( * ( - 9 ) lam6n2 ) ( * ( - 1 ) lam6n3 ) ( * Nl2CT1 lam6n4 ) ( * Nl2CT2 lam6n5 ) ( * Nl2CT3 lam6n6 ) ( - 1 ( + ( + ( + Nl2CT2 ( * Nl2arg12 1 ) ) ( * Nl2arg22 1 ) ) ( * Nl2arg32 1 ) ) ) ) 0 ) ( = ( + ( * 1 lam6n0 ) ( * Nl2arg11 lam6n4 ) ( * Nl2arg12 lam6n5 ) ( * Nl2arg13 lam6n6 ) ) 0 ) ( = ( + ( * 1 lam6n3 ) ( * Nl2arg21 lam6n4 ) ( * Nl2arg22 lam6n5 ) ( * Nl2arg23 lam6n6 ) ) 0 ) ( = ( + ( * ( - 1 ) lam6n1 ) ( * 1 lam6n2 ) ( * Nl2arg31 lam6n4 ) ( * Nl2arg32 lam6n5 ) ( * Nl2arg33 lam6n6 ) ( - ( + 0 ( * Nl2arg32 1 ) ) ) ) 0 ) ) ))
(assert ( or ( and ( >= lam4n0 0 ) ( >= lam4n1 0 ) ( >= lam4n2 0 ) ( >= lam4n4 0 ) ( >= lam4n5 0 ) ( >= lam4n6 0 ) ( > ( + ( * ( - 1 ) lam4n0 ) ( * 2 lam4n1 ) ( * ( - 9 ) lam4n2 ) ( * ( - 1 ) lam4n3 ) ( * Nl2CT1 lam4n4 ) ( * Nl2CT2 lam4n5 ) ( * Nl2CT3 lam4n6 ) ( - 1 ) ) 0 ) ( = ( + ( * 1 lam4n0 ) ( * Nl2arg11 lam4n4 ) ( * Nl2arg12 lam4n5 ) ( * Nl2arg13 lam4n6 ) ) 0 ) ( = ( + ( * 1 lam4n3 ) ( * Nl2arg21 lam4n4 ) ( * Nl2arg22 lam4n5 ) ( * Nl2arg23 lam4n6 ) ) 0 ) ( = ( + ( * ( - 1 ) lam4n1 ) ( * 1 lam4n2 ) ( * Nl2arg31 lam4n4 ) ( * Nl2arg32 lam4n5 ) ( * Nl2arg33 lam4n6 ) ) 0 ) ) ( and ( >= lam7n0 0 ) ( >= lam7n1 0 ) ( >= lam7n2 0 ) ( >= lam7n4 0 ) ( >= lam7n5 0 ) ( >= lam7n6 0 ) ( > ( + ( * ( - 1 ) lam7n0 ) ( * 2 lam7n1 ) ( * ( - 9 ) lam7n2 ) ( * ( - 1 ) lam7n3 ) ( * Nl2CT1 lam7n4 ) ( * Nl2CT2 lam7n5 ) ( * Nl2CT3 lam7n6 ) ( - 1 ( + ( + ( + Nl2CT3 ( * Nl2arg13 1 ) ) ( * Nl2arg23 1 ) ) ( * Nl2arg33 1 ) ) ) ) 0 ) ( = ( + ( * 1 lam7n0 ) ( * Nl2arg11 lam7n4 ) ( * Nl2arg12 lam7n5 ) ( * Nl2arg13 lam7n6 ) ) 0 ) ( = ( + ( * 1 lam7n3 ) ( * Nl2arg21 lam7n4 ) ( * Nl2arg22 lam7n5 ) ( * Nl2arg23 lam7n6 ) ) 0 ) ( = ( + ( * ( - 1 ) lam7n1 ) ( * 1 lam7n2 ) ( * Nl2arg31 lam7n4 ) ( * Nl2arg32 lam7n5 ) ( * Nl2arg33 lam7n6 ) ( - ( + 0 ( * Nl2arg33 1 ) ) ) ) 0 ) ) ))
(assert ( or ( and ( >= lam8n0 0 ) ( >= lam8n1 0 ) ( >= lam8n3 0 ) ( >= lam8n4 0 ) ( >= lam8n5 0 ) ( > ( + ( * ( - 1 ) lam8n0 ) ( * 11 lam8n1 ) ( * Nl2CT1 lam8n3 ) ( * Nl2CT2 lam8n4 ) ( * Nl2CT3 lam8n5 ) ( - 1 ) ) 0 ) ( = ( + ( * 1 lam8n0 ) ( * Nl2arg11 lam8n3 ) ( * Nl2arg12 lam8n4 ) ( * Nl2arg13 lam8n5 ) ) 0 ) ( = ( + ( * 1 lam8n2 ) ( * Nl2arg21 lam8n3 ) ( * Nl2arg22 lam8n4 ) ( * Nl2arg23 lam8n5 ) ) 0 ) ( = ( + ( * ( - 1 ) lam8n1 ) ( * Nl2arg31 lam8n3 ) ( * Nl2arg32 lam8n4 ) ( * Nl2arg33 lam8n5 ) ) 0 ) ) ( and ( >= lam9n0 0 ) ( >= lam9n1 0 ) ( >= lam9n3 0 ) ( >= lam9n4 0 ) ( >= lam9n5 0 ) ( > ( + ( * ( - 1 ) lam9n0 ) ( * 11 lam9n1 ) ( * Nl2CT1 lam9n3 ) ( * Nl2CT2 lam9n4 ) ( * Nl2CT3 lam9n5 ) ( - 1 ( + ( + ( + Nl2CT1 ( * Nl2arg11 0 ) ) ( * Nl2arg21 0 ) ) ( * Nl2arg31 ( - 1 ) ) ) ) ) 0 ) ( = ( + ( * 1 lam9n0 ) ( * Nl2arg11 lam9n3 ) ( * Nl2arg12 lam9n4 ) ( * Nl2arg13 lam9n5 ) ) 0 ) ( = ( + ( * 1 lam9n2 ) ( * Nl2arg21 lam9n3 ) ( * Nl2arg22 lam9n4 ) ( * Nl2arg23 lam9n5 ) ) 0 ) ( = ( + ( * ( - 1 ) lam9n1 ) ( * Nl2arg31 lam9n3 ) ( * Nl2arg32 lam9n4 ) ( * Nl2arg33 lam9n5 ) ( - ( + 0 ( * Nl2arg31 1 ) ) ) ) 0 ) ) ))
(assert ( or ( and ( >= lam8n0 0 ) ( >= lam8n1 0 ) ( >= lam8n3 0 ) ( >= lam8n4 0 ) ( >= lam8n5 0 ) ( > ( + ( * ( - 1 ) lam8n0 ) ( * 11 lam8n1 ) ( * Nl2CT1 lam8n3 ) ( * Nl2CT2 lam8n4 ) ( * Nl2CT3 lam8n5 ) ( - 1 ) ) 0 ) ( = ( + ( * 1 lam8n0 ) ( * Nl2arg11 lam8n3 ) ( * Nl2arg12 lam8n4 ) ( * Nl2arg13 lam8n5 ) ) 0 ) ( = ( + ( * 1 lam8n2 ) ( * Nl2arg21 lam8n3 ) ( * Nl2arg22 lam8n4 ) ( * Nl2arg23 lam8n5 ) ) 0 ) ( = ( + ( * ( - 1 ) lam8n1 ) ( * Nl2arg31 lam8n3 ) ( * Nl2arg32 lam8n4 ) ( * Nl2arg33 lam8n5 ) ) 0 ) ) ( and ( >= lam10n0 0 ) ( >= lam10n1 0 ) ( >= lam10n3 0 ) ( >= lam10n4 0 ) ( >= lam10n5 0 ) ( > ( + ( * ( - 1 ) lam10n0 ) ( * 11 lam10n1 ) ( * Nl2CT1 lam10n3 ) ( * Nl2CT2 lam10n4 ) ( * Nl2CT3 lam10n5 ) ( - 1 ( + ( + ( + Nl2CT2 ( * Nl2arg12 0 ) ) ( * Nl2arg22 0 ) ) ( * Nl2arg32 ( - 1 ) ) ) ) ) 0 ) ( = ( + ( * 1 lam10n0 ) ( * Nl2arg11 lam10n3 ) ( * Nl2arg12 lam10n4 ) ( * Nl2arg13 lam10n5 ) ) 0 ) ( = ( + ( * 1 lam10n2 ) ( * Nl2arg21 lam10n3 ) ( * Nl2arg22 lam10n4 ) ( * Nl2arg23 lam10n5 ) ) 0 ) ( = ( + ( * ( - 1 ) lam10n1 ) ( * Nl2arg31 lam10n3 ) ( * Nl2arg32 lam10n4 ) ( * Nl2arg33 lam10n5 ) ( - ( + 0 ( * Nl2arg32 1 ) ) ) ) 0 ) ) ))
(assert ( or ( and ( >= lam8n0 0 ) ( >= lam8n1 0 ) ( >= lam8n3 0 ) ( >= lam8n4 0 ) ( >= lam8n5 0 ) ( > ( + ( * ( - 1 ) lam8n0 ) ( * 11 lam8n1 ) ( * Nl2CT1 lam8n3 ) ( * Nl2CT2 lam8n4 ) ( * Nl2CT3 lam8n5 ) ( - 1 ) ) 0 ) ( = ( + ( * 1 lam8n0 ) ( * Nl2arg11 lam8n3 ) ( * Nl2arg12 lam8n4 ) ( * Nl2arg13 lam8n5 ) ) 0 ) ( = ( + ( * 1 lam8n2 ) ( * Nl2arg21 lam8n3 ) ( * Nl2arg22 lam8n4 ) ( * Nl2arg23 lam8n5 ) ) 0 ) ( = ( + ( * ( - 1 ) lam8n1 ) ( * Nl2arg31 lam8n3 ) ( * Nl2arg32 lam8n4 ) ( * Nl2arg33 lam8n5 ) ) 0 ) ) ( and ( >= lam11n0 0 ) ( >= lam11n1 0 ) ( >= lam11n3 0 ) ( >= lam11n4 0 ) ( >= lam11n5 0 ) ( > ( + ( * ( - 1 ) lam11n0 ) ( * 11 lam11n1 ) ( * Nl2CT1 lam11n3 ) ( * Nl2CT2 lam11n4 ) ( * Nl2CT3 lam11n5 ) ( - 1 ( + ( + ( + Nl2CT3 ( * Nl2arg13 0 ) ) ( * Nl2arg23 0 ) ) ( * Nl2arg33 ( - 1 ) ) ) ) ) 0 ) ( = ( + ( * 1 lam11n0 ) ( * Nl2arg11 lam11n3 ) ( * Nl2arg12 lam11n4 ) ( * Nl2arg13 lam11n5 ) ) 0 ) ( = ( + ( * 1 lam11n2 ) ( * Nl2arg21 lam11n3 ) ( * Nl2arg22 lam11n4 ) ( * Nl2arg23 lam11n5 ) ) 0 ) ( = ( + ( * ( - 1 ) lam11n1 ) ( * Nl2arg31 lam11n3 ) ( * Nl2arg32 lam11n4 ) ( * Nl2arg33 lam11n5 ) ( - ( + 0 ( * Nl2arg33 1 ) ) ) ) 0 ) ) ))
(assert ( or ( and ( >= lam12n0 0 ) ( >= lam12n1 0 ) ( >= lam12n3 0 ) ( >= lam12n4 0 ) ( >= lam12n5 0 ) ( > ( + ( * ( - 1 ) lam12n0 ) ( * 11 lam12n1 ) ( * ( - 1 ) lam12n2 ) ( * Nl2CT1 lam12n3 ) ( * Nl2CT2 lam12n4 ) ( * Nl2CT3 lam12n5 ) ( - 1 ) ) 0 ) ( = ( + ( * 1 lam12n0 ) ( * Nl2arg11 lam12n3 ) ( * Nl2arg12 lam12n4 ) ( * Nl2arg13 lam12n5 ) ) 0 ) ( = ( + ( * 1 lam12n2 ) ( * Nl2arg21 lam12n3 ) ( * Nl2arg22 lam12n4 ) ( * Nl2arg23 lam12n5 ) ) 0 ) ( = ( + ( * ( - 1 ) lam12n1 ) ( * Nl2arg31 lam12n3 ) ( * Nl2arg32 lam12n4 ) ( * Nl2arg33 lam12n5 ) ) 0 ) ) ( and ( >= lam13n0 0 ) ( >= lam13n1 0 ) ( >= lam13n3 0 ) ( >= lam13n4 0 ) ( >= lam13n5 0 ) ( > ( + ( * ( - 1 ) lam13n0 ) ( * 11 lam13n1 ) ( * ( - 1 ) lam13n2 ) ( * Nl2CT1 lam13n3 ) ( * Nl2CT2 lam13n4 ) ( * Nl2CT3 lam13n5 ) ( - 1 ( + ( + ( + Nl2CT1 ( * Nl2arg11 1 ) ) ( * Nl2arg21 1 ) ) ( * Nl2arg31 1 ) ) ) ) 0 ) ( = ( + ( * 1 lam13n0 ) ( * Nl2arg11 lam13n3 ) ( * Nl2arg12 lam13n4 ) ( * Nl2arg13 lam13n5 ) ) 0 ) ( = ( + ( * 1 lam13n2 ) ( * Nl2arg21 lam13n3 ) ( * Nl2arg22 lam13n4 ) ( * Nl2arg23 lam13n5 ) ) 0 ) ( = ( + ( * ( - 1 ) lam13n1 ) ( * Nl2arg31 lam13n3 ) ( * Nl2arg32 lam13n4 ) ( * Nl2arg33 lam13n5 ) ( - ( + 0 ( * Nl2arg31 1 ) ) ) ) 0 ) ) ))
(assert ( or ( and ( >= lam12n0 0 ) ( >= lam12n1 0 ) ( >= lam12n3 0 ) ( >= lam12n4 0 ) ( >= lam12n5 0 ) ( > ( + ( * ( - 1 ) lam12n0 ) ( * 11 lam12n1 ) ( * ( - 1 ) lam12n2 ) ( * Nl2CT1 lam12n3 ) ( * Nl2CT2 lam12n4 ) ( * Nl2CT3 lam12n5 ) ( - 1 ) ) 0 ) ( = ( + ( * 1 lam12n0 ) ( * Nl2arg11 lam12n3 ) ( * Nl2arg12 lam12n4 ) ( * Nl2arg13 lam12n5 ) ) 0 ) ( = ( + ( * 1 lam12n2 ) ( * Nl2arg21 lam12n3 ) ( * Nl2arg22 lam12n4 ) ( * Nl2arg23 lam12n5 ) ) 0 ) ( = ( + ( * ( - 1 ) lam12n1 ) ( * Nl2arg31 lam12n3 ) ( * Nl2arg32 lam12n4 ) ( * Nl2arg33 lam12n5 ) ) 0 ) ) ( and ( >= lam14n0 0 ) ( >= lam14n1 0 ) ( >= lam14n3 0 ) ( >= lam14n4 0 ) ( >= lam14n5 0 ) ( > ( + ( * ( - 1 ) lam14n0 ) ( * 11 lam14n1 ) ( * ( - 1 ) lam14n2 ) ( * Nl2CT1 lam14n3 ) ( * Nl2CT2 lam14n4 ) ( * Nl2CT3 lam14n5 ) ( - 1 ( + ( + ( + Nl2CT2 ( * Nl2arg12 1 ) ) ( * Nl2arg22 1 ) ) ( * Nl2arg32 1 ) ) ) ) 0 ) ( = ( + ( * 1 lam14n0 ) ( * Nl2arg11 lam14n3 ) ( * Nl2arg12 lam14n4 ) ( * Nl2arg13 lam14n5 ) ) 0 ) ( = ( + ( * 1 lam14n2 ) ( * Nl2arg21 lam14n3 ) ( * Nl2arg22 lam14n4 ) ( * Nl2arg23 lam14n5 ) ) 0 ) ( = ( + ( * ( - 1 ) lam14n1 ) ( * Nl2arg31 lam14n3 ) ( * Nl2arg32 lam14n4 ) ( * Nl2arg33 lam14n5 ) ( - ( + 0 ( * Nl2arg32 1 ) ) ) ) 0 ) ) ))
(assert ( or ( and ( >= lam12n0 0 ) ( >= lam12n1 0 ) ( >= lam12n3 0 ) ( >= lam12n4 0 ) ( >= lam12n5 0 ) ( > ( + ( * ( - 1 ) lam12n0 ) ( * 11 lam12n1 ) ( * ( - 1 ) lam12n2 ) ( * Nl2CT1 lam12n3 ) ( * Nl2CT2 lam12n4 ) ( * Nl2CT3 lam12n5 ) ( - 1 ) ) 0 ) ( = ( + ( * 1 lam12n0 ) ( * Nl2arg11 lam12n3 ) ( * Nl2arg12 lam12n4 ) ( * Nl2arg13 lam12n5 ) ) 0 ) ( = ( + ( * 1 lam12n2 ) ( * Nl2arg21 lam12n3 ) ( * Nl2arg22 lam12n4 ) ( * Nl2arg23 lam12n5 ) ) 0 ) ( = ( + ( * ( - 1 ) lam12n1 ) ( * Nl2arg31 lam12n3 ) ( * Nl2arg32 lam12n4 ) ( * Nl2arg33 lam12n5 ) ) 0 ) ) ( and ( >= lam15n0 0 ) ( >= lam15n1 0 ) ( >= lam15n3 0 ) ( >= lam15n4 0 ) ( >= lam15n5 0 ) ( > ( + ( * ( - 1 ) lam15n0 ) ( * 11 lam15n1 ) ( * ( - 1 ) lam15n2 ) ( * Nl2CT1 lam15n3 ) ( * Nl2CT2 lam15n4 ) ( * Nl2CT3 lam15n5 ) ( - 1 ( + ( + ( + Nl2CT3 ( * Nl2arg13 1 ) ) ( * Nl2arg23 1 ) ) ( * Nl2arg33 1 ) ) ) ) 0 ) ( = ( + ( * 1 lam15n0 ) ( * Nl2arg11 lam15n3 ) ( * Nl2arg12 lam15n4 ) ( * Nl2arg13 lam15n5 ) ) 0 ) ( = ( + ( * 1 lam15n2 ) ( * Nl2arg21 lam15n3 ) ( * Nl2arg22 lam15n4 ) ( * Nl2arg23 lam15n5 ) ) 0 ) ( = ( + ( * ( - 1 ) lam15n1 ) ( * Nl2arg31 lam15n3 ) ( * Nl2arg32 lam15n4 ) ( * Nl2arg33 lam15n5 ) ( - ( + 0 ( * Nl2arg33 1 ) ) ) ) 0 ) ) ))
(assert ( or ( and ( >= lam16n0 0 ) ( >= lam16n2 0 ) ( >= lam16n3 0 ) ( >= lam16n4 0 ) ( > ( + ( * ( - 1 ) lam16n0 ) ( * ( - 1 ) lam16n1 ) ( * Nl2CT1 lam16n2 ) ( * Nl2CT2 lam16n3 ) ( * Nl2CT3 lam16n4 ) ( - 1 ) ) 0 ) ( = ( + ( * 1 lam16n0 ) ( * Nl2arg11 lam16n2 ) ( * Nl2arg12 lam16n3 ) ( * Nl2arg13 lam16n4 ) ) 0 ) ( = ( + ( * Nl2arg21 lam16n2 ) ( * Nl2arg22 lam16n3 ) ( * Nl2arg23 lam16n4 ) ) 0 ) ( = ( + ( * 1 lam16n1 ) ( * Nl2arg31 lam16n2 ) ( * Nl2arg32 lam16n3 ) ( * Nl2arg33 lam16n4 ) ) 0 ) ) ( and ( >= lam17n0 0 ) ( >= lam17n2 0 ) ( >= lam17n3 0 ) ( >= lam17n4 0 ) ( > ( + ( * ( - 1 ) lam17n0 ) ( * ( - 1 ) lam17n1 ) ( * Nl2CT1 lam17n2 ) ( * Nl2CT2 lam17n3 ) ( * Nl2CT3 lam17n4 ) ( - 1 ( + ( + ( + Nl2CT1 ( * Nl2arg11 1 ) ) ( * Nl2arg21 1 ) ) ( * Nl2arg31 2 ) ) ) ) 0 ) ( = ( + ( * 1 lam17n0 ) ( * Nl2arg11 lam17n2 ) ( * Nl2arg12 lam17n3 ) ( * Nl2arg13 lam17n4 ) ) 0 ) ( = ( + ( * Nl2arg21 lam17n2 ) ( * Nl2arg22 lam17n3 ) ( * Nl2arg23 lam17n4 ) ) 0 ) ( = ( + ( * 1 lam17n1 ) ( * Nl2arg31 lam17n2 ) ( * Nl2arg32 lam17n3 ) ( * Nl2arg33 lam17n4 ) ) 0 ) ) ))
(assert ( or ( and ( >= lam16n0 0 ) ( >= lam16n2 0 ) ( >= lam16n3 0 ) ( >= lam16n4 0 ) ( > ( + ( * ( - 1 ) lam16n0 ) ( * ( - 1 ) lam16n1 ) ( * Nl2CT1 lam16n2 ) ( * Nl2CT2 lam16n3 ) ( * Nl2CT3 lam16n4 ) ( - 1 ) ) 0 ) ( = ( + ( * 1 lam16n0 ) ( * Nl2arg11 lam16n2 ) ( * Nl2arg12 lam16n3 ) ( * Nl2arg13 lam16n4 ) ) 0 ) ( = ( + ( * Nl2arg21 lam16n2 ) ( * Nl2arg22 lam16n3 ) ( * Nl2arg23 lam16n4 ) ) 0 ) ( = ( + ( * 1 lam16n1 ) ( * Nl2arg31 lam16n2 ) ( * Nl2arg32 lam16n3 ) ( * Nl2arg33 lam16n4 ) ) 0 ) ) ( and ( >= lam18n0 0 ) ( >= lam18n2 0 ) ( >= lam18n3 0 ) ( >= lam18n4 0 ) ( > ( + ( * ( - 1 ) lam18n0 ) ( * ( - 1 ) lam18n1 ) ( * Nl2CT1 lam18n2 ) ( * Nl2CT2 lam18n3 ) ( * Nl2CT3 lam18n4 ) ( - 1 ( + ( + ( + Nl2CT2 ( * Nl2arg12 1 ) ) ( * Nl2arg22 1 ) ) ( * Nl2arg32 2 ) ) ) ) 0 ) ( = ( + ( * 1 lam18n0 ) ( * Nl2arg11 lam18n2 ) ( * Nl2arg12 lam18n3 ) ( * Nl2arg13 lam18n4 ) ) 0 ) ( = ( + ( * Nl2arg21 lam18n2 ) ( * Nl2arg22 lam18n3 ) ( * Nl2arg23 lam18n4 ) ) 0 ) ( = ( + ( * 1 lam18n1 ) ( * Nl2arg31 lam18n2 ) ( * Nl2arg32 lam18n3 ) ( * Nl2arg33 lam18n4 ) ) 0 ) ) ))
(assert ( or ( and ( >= lam16n0 0 ) ( >= lam16n2 0 ) ( >= lam16n3 0 ) ( >= lam16n4 0 ) ( > ( + ( * ( - 1 ) lam16n0 ) ( * ( - 1 ) lam16n1 ) ( * Nl2CT1 lam16n2 ) ( * Nl2CT2 lam16n3 ) ( * Nl2CT3 lam16n4 ) ( - 1 ) ) 0 ) ( = ( + ( * 1 lam16n0 ) ( * Nl2arg11 lam16n2 ) ( * Nl2arg12 lam16n3 ) ( * Nl2arg13 lam16n4 ) ) 0 ) ( = ( + ( * Nl2arg21 lam16n2 ) ( * Nl2arg22 lam16n3 ) ( * Nl2arg23 lam16n4 ) ) 0 ) ( = ( + ( * 1 lam16n1 ) ( * Nl2arg31 lam16n2 ) ( * Nl2arg32 lam16n3 ) ( * Nl2arg33 lam16n4 ) ) 0 ) ) ( and ( >= lam19n0 0 ) ( >= lam19n2 0 ) ( >= lam19n3 0 ) ( >= lam19n4 0 ) ( > ( + ( * ( - 1 ) lam19n0 ) ( * ( - 1 ) lam19n1 ) ( * Nl2CT1 lam19n2 ) ( * Nl2CT2 lam19n3 ) ( * Nl2CT3 lam19n4 ) ( - 1 ( + ( + ( + Nl2CT3 ( * Nl2arg13 1 ) ) ( * Nl2arg23 1 ) ) ( * Nl2arg33 2 ) ) ) ) 0 ) ( = ( + ( * 1 lam19n0 ) ( * Nl2arg11 lam19n2 ) ( * Nl2arg12 lam19n3 ) ( * Nl2arg13 lam19n4 ) ) 0 ) ( = ( + ( * Nl2arg21 lam19n2 ) ( * Nl2arg22 lam19n3 ) ( * Nl2arg23 lam19n4 ) ) 0 ) ( = ( + ( * 1 lam19n1 ) ( * Nl2arg31 lam19n2 ) ( * Nl2arg32 lam19n3 ) ( * Nl2arg33 lam19n4 ) ) 0 ) ) ))
(assert ( or ( and ( >= lam20n0 0 ) ( >= lam20n2 0 ) ( >= lam20n3 0 ) ( >= lam20n4 0 ) ( > ( + ( * ( - 1 ) lam20n0 ) ( * ( - 10 ) lam20n1 ) ( * Nl2CT1 lam20n2 ) ( * Nl2CT2 lam20n3 ) ( * Nl2CT3 lam20n4 ) ( - 1 ) ) 0 ) ( = ( + ( * 1 lam20n0 ) ( * Nl2arg11 lam20n2 ) ( * Nl2arg12 lam20n3 ) ( * Nl2arg13 lam20n4 ) ) 0 ) ( = ( + ( * Nl2arg21 lam20n2 ) ( * Nl2arg22 lam20n3 ) ( * Nl2arg23 lam20n4 ) ) 0 ) ( = ( + ( * 1 lam20n1 ) ( * Nl2arg31 lam20n2 ) ( * Nl2arg32 lam20n3 ) ( * Nl2arg33 lam20n4 ) ) 0 ) ) ( and ( >= lam21n0 0 ) ( >= lam21n2 0 ) ( >= lam21n3 0 ) ( >= lam21n4 0 ) ( > ( + ( * ( - 1 ) lam21n0 ) ( * ( - 10 ) lam21n1 ) ( * Nl2CT1 lam21n2 ) ( * Nl2CT2 lam21n3 ) ( * Nl2CT3 lam21n4 ) ( - 1 ( + ( + ( + Nl2CT1 ( * Nl2arg11 0 ) ) ( * Nl2arg21 0 ) ) ( * Nl2arg31 9 ) ) ) ) 0 ) ( = ( + ( * 1 lam21n0 ) ( * Nl2arg11 lam21n2 ) ( * Nl2arg12 lam21n3 ) ( * Nl2arg13 lam21n4 ) ) 0 ) ( = ( + ( * Nl2arg21 lam21n2 ) ( * Nl2arg22 lam21n3 ) ( * Nl2arg23 lam21n4 ) ) 0 ) ( = ( + ( * 1 lam21n1 ) ( * Nl2arg31 lam21n2 ) ( * Nl2arg32 lam21n3 ) ( * Nl2arg33 lam21n4 ) ) 0 ) ) ))
(assert ( or ( and ( >= lam20n0 0 ) ( >= lam20n2 0 ) ( >= lam20n3 0 ) ( >= lam20n4 0 ) ( > ( + ( * ( - 1 ) lam20n0 ) ( * ( - 10 ) lam20n1 ) ( * Nl2CT1 lam20n2 ) ( * Nl2CT2 lam20n3 ) ( * Nl2CT3 lam20n4 ) ( - 1 ) ) 0 ) ( = ( + ( * 1 lam20n0 ) ( * Nl2arg11 lam20n2 ) ( * Nl2arg12 lam20n3 ) ( * Nl2arg13 lam20n4 ) ) 0 ) ( = ( + ( * Nl2arg21 lam20n2 ) ( * Nl2arg22 lam20n3 ) ( * Nl2arg23 lam20n4 ) ) 0 ) ( = ( + ( * 1 lam20n1 ) ( * Nl2arg31 lam20n2 ) ( * Nl2arg32 lam20n3 ) ( * Nl2arg33 lam20n4 ) ) 0 ) ) ( and ( >= lam22n0 0 ) ( >= lam22n2 0 ) ( >= lam22n3 0 ) ( >= lam22n4 0 ) ( > ( + ( * ( - 1 ) lam22n0 ) ( * ( - 10 ) lam22n1 ) ( * Nl2CT1 lam22n2 ) ( * Nl2CT2 lam22n3 ) ( * Nl2CT3 lam22n4 ) ( - 1 ( + ( + ( + Nl2CT2 ( * Nl2arg12 0 ) ) ( * Nl2arg22 0 ) ) ( * Nl2arg32 9 ) ) ) ) 0 ) ( = ( + ( * 1 lam22n0 ) ( * Nl2arg11 lam22n2 ) ( * Nl2arg12 lam22n3 ) ( * Nl2arg13 lam22n4 ) ) 0 ) ( = ( + ( * Nl2arg21 lam22n2 ) ( * Nl2arg22 lam22n3 ) ( * Nl2arg23 lam22n4 ) ) 0 ) ( = ( + ( * 1 lam22n1 ) ( * Nl2arg31 lam22n2 ) ( * Nl2arg32 lam22n3 ) ( * Nl2arg33 lam22n4 ) ) 0 ) ) ))
(assert ( or ( and ( >= lam20n0 0 ) ( >= lam20n2 0 ) ( >= lam20n3 0 ) ( >= lam20n4 0 ) ( > ( + ( * ( - 1 ) lam20n0 ) ( * ( - 10 ) lam20n1 ) ( * Nl2CT1 lam20n2 ) ( * Nl2CT2 lam20n3 ) ( * Nl2CT3 lam20n4 ) ( - 1 ) ) 0 ) ( = ( + ( * 1 lam20n0 ) ( * Nl2arg11 lam20n2 ) ( * Nl2arg12 lam20n3 ) ( * Nl2arg13 lam20n4 ) ) 0 ) ( = ( + ( * Nl2arg21 lam20n2 ) ( * Nl2arg22 lam20n3 ) ( * Nl2arg23 lam20n4 ) ) 0 ) ( = ( + ( * 1 lam20n1 ) ( * Nl2arg31 lam20n2 ) ( * Nl2arg32 lam20n3 ) ( * Nl2arg33 lam20n4 ) ) 0 ) ) ( and ( >= lam23n0 0 ) ( >= lam23n2 0 ) ( >= lam23n3 0 ) ( >= lam23n4 0 ) ( > ( + ( * ( - 1 ) lam23n0 ) ( * ( - 10 ) lam23n1 ) ( * Nl2CT1 lam23n2 ) ( * Nl2CT2 lam23n3 ) ( * Nl2CT3 lam23n4 ) ( - 1 ( + ( + ( + Nl2CT3 ( * Nl2arg13 0 ) ) ( * Nl2arg23 0 ) ) ( * Nl2arg33 9 ) ) ) ) 0 ) ( = ( + ( * 1 lam23n0 ) ( * Nl2arg11 lam23n2 ) ( * Nl2arg12 lam23n3 ) ( * Nl2arg13 lam23n4 ) ) 0 ) ( = ( + ( * Nl2arg21 lam23n2 ) ( * Nl2arg22 lam23n3 ) ( * Nl2arg23 lam23n4 ) ) 0 ) ( = ( + ( * 1 lam23n1 ) ( * Nl2arg31 lam23n2 ) ( * Nl2arg32 lam23n3 ) ( * Nl2arg33 lam23n4 ) ) 0 ) ) ))
(assert ( and ( <= ( + Nl2CT1 ( * Nl2arg11 FV_arg1_6 ) ( * Nl2arg21 FV_arg2_6 ) ( * Nl2arg31 FV_arg3_6 ) ) 0 ) ( <= ( + Nl2CT2 ( * Nl2arg12 FV_arg1_6 ) ( * Nl2arg22 FV_arg2_6 ) ( * Nl2arg32 FV_arg3_6 ) ) 0 ) ( <= ( + Nl2CT3 ( * Nl2arg13 FV_arg1_6 ) ( * Nl2arg23 FV_arg2_6 ) ( * Nl2arg33 FV_arg3_6 ) ) 0 ) ))
(assert ( or ( and ( >= lam27n0 0 ) ( >= lam27n1 0 ) ( >= lam27n2 0 ) ( >= lam27n3 0 ) ( >= lam27n4 0 ) ( >= lam27n5 0 ) ( > ( + ( * 1 lam27n0 ) ( * 10 lam27n1 ) ( * 2 lam27n2 ) ( * Nl2CT1 lam27n3 ) ( * Nl2CT2 lam27n4 ) ( * Nl2CT3 lam27n5 ) ( - 1 ) ) 0 ) ( = ( + ( * ( - 1 ) lam27n2 ) ( * Nl2arg11 lam27n3 ) ( * Nl2arg12 lam27n4 ) ( * Nl2arg13 lam27n5 ) ) 0 ) ( = ( + ( * ( - 1 ) lam27n0 ) ( * Nl2arg21 lam27n3 ) ( * Nl2arg22 lam27n4 ) ( * Nl2arg23 lam27n5 ) ) 0 ) ( = ( + ( * ( - 1 ) lam27n1 ) ( * Nl2arg31 lam27n3 ) ( * Nl2arg32 lam27n4 ) ( * Nl2arg33 lam27n5 ) ) 0 ) ) ( and ( >= lam28n0 0 ) ( >= lam28n1 0 ) ( >= lam28n2 0 ) ( >= lam28n3 0 ) ( >= lam28n4 0 ) ( >= lam28n5 0 ) ( > ( + ( * 10 lam28n1 ) ( * 2 lam28n2 ) ( * Nl2CT1 lam28n3 ) ( * Nl2CT2 lam28n4 ) ( * Nl2CT3 lam28n5 ) ( - 1 ) ) 0 ) ( = ( + ( * ( - 1 ) lam28n2 ) ( * Nl2arg11 lam28n3 ) ( * Nl2arg12 lam28n4 ) ( * Nl2arg13 lam28n5 ) ) 0 ) ( = ( + ( * 1 lam28n0 ) ( * Nl2arg21 lam28n3 ) ( * Nl2arg22 lam28n4 ) ( * Nl2arg23 lam28n5 ) ) 0 ) ( = ( + ( * ( - 1 ) lam28n1 ) ( * Nl2arg31 lam28n3 ) ( * Nl2arg32 lam28n4 ) ( * Nl2arg33 lam28n5 ) ) 0 ) ) ( and ( >= lam29n0 0 ) ( >= lam29n1 0 ) ( >= lam29n2 0 ) ( >= lam29n3 0 ) ( >= lam29n4 0 ) ( >= lam29n5 0 ) ( >= lam29n6 0 ) ( > ( + ( * 1 lam29n0 ) ( * 2 lam29n1 ) ( * 2 lam29n2 ) ( * ( - 9 ) lam29n3 ) ( * Nl2CT1 lam29n4 ) ( * Nl2CT2 lam29n5 ) ( * Nl2CT3 lam29n6 ) ( - 1 ) ) 0 ) ( = ( + ( * ( - 1 ) lam29n1 ) ( * Nl2arg11 lam29n4 ) ( * Nl2arg12 lam29n5 ) ( * Nl2arg13 lam29n6 ) ) 0 ) ( = ( + ( * ( - 1 ) lam29n0 ) ( * Nl2arg21 lam29n4 ) ( * Nl2arg22 lam29n5 ) ( * Nl2arg23 lam29n6 ) ) 0 ) ( = ( + ( * ( - 1 ) lam29n2 ) ( * 1 lam29n3 ) ( * Nl2arg31 lam29n4 ) ( * Nl2arg32 lam29n5 ) ( * Nl2arg33 lam29n6 ) ) 0 ) ) ( and ( >= lam30n0 0 ) ( >= lam30n1 0 ) ( >= lam30n2 0 ) ( >= lam30n3 0 ) ( >= lam30n4 0 ) ( >= lam30n5 0 ) ( >= lam30n6 0 ) ( > ( + ( * 2 lam30n1 ) ( * 2 lam30n2 ) ( * ( - 9 ) lam30n3 ) ( * Nl2CT1 lam30n4 ) ( * Nl2CT2 lam30n5 ) ( * Nl2CT3 lam30n6 ) ( - 1 ) ) 0 ) ( = ( + ( * ( - 1 ) lam30n1 ) ( * Nl2arg11 lam30n4 ) ( * Nl2arg12 lam30n5 ) ( * Nl2arg13 lam30n6 ) ) 0 ) ( = ( + ( * 1 lam30n0 ) ( * Nl2arg21 lam30n4 ) ( * Nl2arg22 lam30n5 ) ( * Nl2arg23 lam30n6 ) ) 0 ) ( = ( + ( * ( - 1 ) lam30n2 ) ( * 1 lam30n3 ) ( * Nl2arg31 lam30n4 ) ( * Nl2arg32 lam30n5 ) ( * Nl2arg33 lam30n6 ) ) 0 ) ) ( and ( >= lam31n0 0 ) ( >= lam31n1 0 ) ( >= lam31n2 0 ) ( >= lam31n3 0 ) ( >= lam31n4 0 ) ( >= lam31n5 0 ) ( > ( + ( * 1 lam31n0 ) ( * ( - 1 ) lam31n1 ) ( * 2 lam31n2 ) ( * Nl2CT1 lam31n3 ) ( * Nl2CT2 lam31n4 ) ( * Nl2CT3 lam31n5 ) ( - 1 ) ) 0 ) ( = ( + ( * ( - 1 ) lam31n2 ) ( * Nl2arg11 lam31n3 ) ( * Nl2arg12 lam31n4 ) ( * Nl2arg13 lam31n5 ) ) 0 ) ( = ( + ( * ( - 1 ) lam31n0 ) ( * Nl2arg21 lam31n3 ) ( * Nl2arg22 lam31n4 ) ( * Nl2arg23 lam31n5 ) ) 0 ) ( = ( + ( * 1 lam31n1 ) ( * Nl2arg31 lam31n3 ) ( * Nl2arg32 lam31n4 ) ( * Nl2arg33 lam31n5 ) ) 0 ) ) ( and ( >= lam32n0 0 ) ( >= lam32n1 0 ) ( >= lam32n2 0 ) ( >= lam32n3 0 ) ( >= lam32n4 0 ) ( >= lam32n5 0 ) ( > ( + ( * ( - 1 ) lam32n1 ) ( * 2 lam32n2 ) ( * Nl2CT1 lam32n3 ) ( * Nl2CT2 lam32n4 ) ( * Nl2CT3 lam32n5 ) ( - 1 ) ) 0 ) ( = ( + ( * ( - 1 ) lam32n2 ) ( * Nl2arg11 lam32n3 ) ( * Nl2arg12 lam32n4 ) ( * Nl2arg13 lam32n5 ) ) 0 ) ( = ( + ( * 1 lam32n0 ) ( * Nl2arg21 lam32n3 ) ( * Nl2arg22 lam32n4 ) ( * Nl2arg23 lam32n5 ) ) 0 ) ( = ( + ( * 1 lam32n1 ) ( * Nl2arg31 lam32n3 ) ( * Nl2arg32 lam32n4 ) ( * Nl2arg33 lam32n5 ) ) 0 ) ) ( and ( >= lam33n0 0 ) ( >= lam33n1 0 ) ( >= lam33n2 0 ) ( >= lam33n3 0 ) ( >= lam33n4 0 ) ( >= lam33n5 0 ) ( > ( + ( * ( - 1 ) lam33n0 ) ( * 2 lam33n1 ) ( * 11 lam33n2 ) ( * Nl2CT1 lam33n3 ) ( * Nl2CT2 lam33n4 ) ( * Nl2CT3 lam33n5 ) ( - 1 ) ) 0 ) ( = ( + ( * 1 lam33n0 ) ( * Nl2arg11 lam33n3 ) ( * Nl2arg12 lam33n4 ) ( * Nl2arg13 lam33n5 ) ) 0 ) ( = ( + ( * ( - 1 ) lam33n1 ) ( * Nl2arg21 lam33n3 ) ( * Nl2arg22 lam33n4 ) ( * Nl2arg23 lam33n5 ) ) 0 ) ( = ( + ( * ( - 1 ) lam33n2 ) ( * Nl2arg31 lam33n3 ) ( * Nl2arg32 lam33n4 ) ( * Nl2arg33 lam33n5 ) ) 0 ) ) ( and ( >= lam34n0 0 ) ( >= lam34n1 0 ) ( >= lam34n2 0 ) ( >= lam34n3 0 ) ( >= lam34n4 0 ) ( >= lam34n5 0 ) ( > ( + ( * 1 lam34n0 ) ( * ( - 1 ) lam34n1 ) ( * 11 lam34n2 ) ( * Nl2CT1 lam34n3 ) ( * Nl2CT2 lam34n4 ) ( * Nl2CT3 lam34n5 ) ( - 1 ) ) 0 ) ( = ( + ( * 1 lam34n1 ) ( * Nl2arg11 lam34n3 ) ( * Nl2arg12 lam34n4 ) ( * Nl2arg13 lam34n5 ) ) 0 ) ( = ( + ( * 1 lam34n0 ) ( * Nl2arg21 lam34n3 ) ( * Nl2arg22 lam34n4 ) ( * Nl2arg23 lam34n5 ) ) 0 ) ( = ( + ( * ( - 1 ) lam34n2 ) ( * Nl2arg31 lam34n3 ) ( * Nl2arg32 lam34n4 ) ( * Nl2arg33 lam34n5 ) ) 0 ) ) ( and ( >= lam35n0 0 ) ( >= lam35n1 0 ) ( >= lam35n2 0 ) ( >= lam35n3 0 ) ( >= lam35n4 0 ) ( >= lam35n5 0 ) ( >= lam35n6 0 ) ( > ( + ( * ( - 1 ) lam35n0 ) ( * 2 lam35n1 ) ( * 2 lam35n2 ) ( * ( - 9 ) lam35n3 ) ( * Nl2CT1 lam35n4 ) ( * Nl2CT2 lam35n5 ) ( * Nl2CT3 lam35n6 ) ( - 1 ) ) 0 ) ( = ( + ( * 1 lam35n0 ) ( * Nl2arg11 lam35n4 ) ( * Nl2arg12 lam35n5 ) ( * Nl2arg13 lam35n6 ) ) 0 ) ( = ( + ( * ( - 1 ) lam35n1 ) ( * Nl2arg21 lam35n4 ) ( * Nl2arg22 lam35n5 ) ( * Nl2arg23 lam35n6 ) ) 0 ) ( = ( + ( * ( - 1 ) lam35n2 ) ( * 1 lam35n3 ) ( * Nl2arg31 lam35n4 ) ( * Nl2arg32 lam35n5 ) ( * Nl2arg33 lam35n6 ) ) 0 ) ) ( and ( >= lam36n0 0 ) ( >= lam36n1 0 ) ( >= lam36n2 0 ) ( >= lam36n3 0 ) ( >= lam36n4 0 ) ( >= lam36n5 0 ) ( >= lam36n6 0 ) ( > ( + ( * 1 lam36n0 ) ( * ( - 1 ) lam36n1 ) ( * 2 lam36n2 ) ( * ( - 9 ) lam36n3 ) ( * Nl2CT1 lam36n4 ) ( * Nl2CT2 lam36n5 ) ( * Nl2CT3 lam36n6 ) ( - 1 ) ) 0 ) ( = ( + ( * 1 lam36n1 ) ( * Nl2arg11 lam36n4 ) ( * Nl2arg12 lam36n5 ) ( * Nl2arg13 lam36n6 ) ) 0 ) ( = ( + ( * 1 lam36n0 ) ( * Nl2arg21 lam36n4 ) ( * Nl2arg22 lam36n5 ) ( * Nl2arg23 lam36n6 ) ) 0 ) ( = ( + ( * ( - 1 ) lam36n2 ) ( * 1 lam36n3 ) ( * Nl2arg31 lam36n4 ) ( * Nl2arg32 lam36n5 ) ( * Nl2arg33 lam36n6 ) ) 0 ) ) ( and ( >= lam37n0 0 ) ( >= lam37n1 0 ) ( >= lam37n2 0 ) ( >= lam37n3 0 ) ( >= lam37n4 0 ) ( >= lam37n5 0 ) ( > ( + ( * 1 lam37n1 ) ( * ( - 1 ) lam37n2 ) ( * Nl2CT1 lam37n3 ) ( * Nl2CT2 lam37n4 ) ( * Nl2CT3 lam37n5 ) ( - 1 ) ) 0 ) ( = ( + ( * 1 lam37n2 ) ( * Nl2arg11 lam37n3 ) ( * Nl2arg12 lam37n4 ) ( * Nl2arg13 lam37n5 ) ) 0 ) ( = ( + ( * ( - 1 ) lam37n1 ) ( * Nl2arg21 lam37n3 ) ( * Nl2arg22 lam37n4 ) ( * Nl2arg23 lam37n5 ) ) 0 ) ( = ( + ( * 1 lam37n0 ) ( * Nl2arg31 lam37n3 ) ( * Nl2arg32 lam37n4 ) ( * Nl2arg33 lam37n5 ) ) 0 ) ) ( and ( >= lam38n0 0 ) ( >= lam38n1 0 ) ( >= lam38n2 0 ) ( >= lam38n3 0 ) ( >= lam38n4 0 ) ( >= lam38n5 0 ) ( > ( + ( * ( - 1 ) lam38n2 ) ( * Nl2CT1 lam38n3 ) ( * Nl2CT2 lam38n4 ) ( * Nl2CT3 lam38n5 ) ( - 1 ) ) 0 ) ( = ( + ( * 1 lam38n2 ) ( * Nl2arg11 lam38n3 ) ( * Nl2arg12 lam38n4 ) ( * Nl2arg13 lam38n5 ) ) 0 ) ( = ( + ( * 1 lam38n0 ) ( * Nl2arg21 lam38n3 ) ( * Nl2arg22 lam38n4 ) ( * Nl2arg23 lam38n5 ) ) 0 ) ( = ( + ( * 1 lam38n1 ) ( * Nl2arg31 lam38n3 ) ( * Nl2arg32 lam38n4 ) ( * Nl2arg33 lam38n5 ) ) 0 ) ) ))
(assert ( and ( and ( <= ( + Nl2CT1 ( * Nl2arg11 FV_arg1_7 ) ( * Nl2arg31 FV_arg3_7 ) ( * Nl2arg21 FV_arg2_7 ) ) 0 ) ( <= ( + Nl2CT2 ( * Nl2arg12 FV_arg1_7 ) ( * Nl2arg32 FV_arg3_7 ) ( * Nl2arg22 FV_arg2_7 ) ) 0 ) ( <= ( + Nl2CT3 ( * Nl2arg13 FV_arg1_7 ) ( * Nl2arg33 FV_arg3_7 ) ( * Nl2arg23 FV_arg2_7 ) ) 0 ) ) ( or ( and ( <= ( + ( - 1 ) FV_arg1_7 ) 0 ) ( <= ( + 2 ( * ( - 1 ) FV_arg3_7 ) ) 0 ) ( <= ( + ( - 9 ) FV_arg3_7 ) 0 ) ( = FV_arg2_7 0 ) ) ( and ( <= ( + ( - 1 ) FV_arg1_7 ) 0 ) ( <= ( + 2 ( * ( - 1 ) FV_arg3_7 ) ) 0 ) ( <= ( + ( - 9 ) FV_arg3_7 ) 0 ) ( = ( + ( - 1 ) FV_arg2_7 ) 0 ) ) ( and ( <= ( + ( - 1 ) FV_arg1_7 ) 0 ) ( <= ( + 11 ( * ( - 1 ) FV_arg3_7 ) ) 0 ) ( = FV_arg2_7 0 ) ) ( and ( <= ( + ( - 1 ) FV_arg1_7 ) 0 ) ( <= ( + 11 ( * ( - 1 ) FV_arg3_7 ) ) 0 ) ( = ( + ( - 1 ) FV_arg2_7 ) 0 ) ) ( and ( <= ( + ( - 1 ) FV_arg1_7 ) 0 ) ( = ( + ( - 1 ) FV_arg3_7 ) 0 ) ) ( and ( <= ( + ( - 1 ) FV_arg1_7 ) 0 ) ( = ( + ( - 10 ) FV_arg3_7 ) 0 ) ) ) ))
(check-sat)
(exit)
